NAME: random_10_1
TYPE: TSP
COMMENT: random_10_1
DIMENSION: 10
EDGE_WEIGHT_TYPE: EUC_2D
NODE_COORD_SECTION
1 317 98
2 407 71
3 57 204
4 138 107
5 31 443
6 308 489
7 349 286
8 377 32
9 422 69
10 23 217
